600 3914 
1 34 1
1 38 1
1 47 1
1 72 1
1 196 1
1 204 1
1 308 1
1 339 1
1 357 1
1 358 1
1 395 1
1 412 1
1 477 1
1 554 1
2 42 1
2 53 1
2 56 1
2 57 1
2 142 1
2 145 1
2 247 1
2 264 1
2 347 1
2 349 1
2 500 1
2 519 1
2 534 1
2 561 1
3 51 1
3 57 1
3 193 1
3 274 1
3 325 1
3 360 1
3 384 1
3 388 1
3 416 1
3 454 1
3 526 1
3 539 1
3 543 1
4 132 1
4 139 1
4 163 1
4 210 1
4 242 1
4 293 1
4 354 1
4 448 1
4 493 1
4 540 1
4 541 1
4 546 1
5 52 1
5 260 1
5 295 1
5 322 1
5 361 1
5 371 1
5 417 1
5 469 1
5 484 1
5 506 1
5 537 1
5 581 1
5 592 1
6 27 1
6 102 1
6 118 1
6 163 1
6 175 1
6 280 1
6 294 1
6 356 1
6 377 1
6 380 1
6 500 1
6 517 1
6 583 1
7 16 1
7 61 1
7 87 1
7 157 1
7 181 1
7 239 1
7 280 1
7 304 1
7 309 1
7 340 1
7 394 1
7 447 1
7 463 1
7 585 1
8 18 1
8 138 1
8 154 1
8 204 1
8 256 1
8 268 1
8 303 1
8 329 1
8 340 1
8 343 1
8 430 1
8 518 1
8 566 1
9 15 1
9 24 1
9 85 1
9 164 1
9 263 1
9 283 1
9 288 1
9 290 1
9 306 1
9 386 1
9 445 1
9 455 1
9 503 1
10 35 1
10 56 1
10 67 1
10 83 1
10 99 1
10 150 1
10 172 1
10 180 1
10 197 1
10 384 1
10 467 1
10 478 1
10 499 1
10 531 1
11 118 1
11 144 1
11 151 1
11 157 1
11 162 1
11 207 1
11 242 1
11 354 1
11 369 1
11 462 1
11 479 1
11 566 1
11 599 1
12 152 1
12 169 1
12 197 1
12 202 1
12 293 1
12 330 1
12 412 1
12 428 1
12 449 1
12 475 1
12 499 1
12 516 1
12 522 1
12 572 1
13 100 1
13 178 1
13 219 1
13 230 1
13 232 1
13 365 1
13 387 1
13 407 1
13 426 1
13 528 1
13 583 1
14 27 1
14 79 1
14 153 1
14 156 1
14 164 1
14 168 1
14 233 1
14 400 1
14 419 1
14 451 1
14 479 1
14 489 1
14 547 1
14 577 1
15 50 1
15 63 1
15 64 1
15 94 1
15 112 1
15 151 1
15 204 1
15 214 1
15 402 1
15 498 1
15 514 1
15 528 1
15 578 1
15 596 1
16 17 1
16 44 1
16 110 1
16 199 1
16 261 1
16 314 1
16 322 1
16 335 1
16 412 1
16 449 1
16 532 1
16 534 1
16 548 1
17 39 1
17 43 1
17 88 1
17 101 1
17 200 1
17 214 1
17 294 1
17 303 1
17 392 1
17 402 1
17 421 1
17 443 1
17 489 1
18 86 1
18 109 1
18 136 1
18 270 1
18 353 1
18 358 1
18 373 1
18 481 1
18 507 1
18 508 1
18 542 1
18 543 1
18 546 1
19 88 1
19 131 1
19 135 1
19 141 1
19 200 1
19 231 1
19 308 1
19 338 1
19 369 1
19 420 1
19 455 1
19 458 1
19 461 1
20 57 1
20 65 1
20 156 1
20 160 1
20 176 1
20 195 1
20 210 1
20 309 1
20 378 1
20 487 1
20 518 1
20 594 1
21 68 1
21 130 1
21 151 1
21 172 1
21 223 1
21 262 1
21 333 1
21 336 1
21 401 1
21 499 1
21 574 1
22 77 1
22 248 1
22 300 1
22 368 1
22 424 1
22 492 1
22 522 1
22 572 1
22 578 1
22 589 1
22 592 1
23 60 1
23 107 1
23 127 1
23 132 1
23 180 1
23 182 1
23 368 1
23 381 1
23 404 1
23 428 1
23 454 1
23 526 1
23 548 1
24 37 1
24 121 1
24 249 1
24 278 1
24 283 1
24 315 1
24 335 1
24 441 1
24 465 1
24 486 1
24 495 1
24 536 1
25 42 1
25 45 1
25 81 1
25 103 1
25 183 1
25 188 1
25 236 1
25 256 1
25 268 1
25 285 1
25 320 1
25 322 1
25 474 1
25 585 1
26 46 1
26 68 1
26 84 1
26 89 1
26 116 1
26 161 1
26 169 1
26 216 1
26 225 1
26 281 1
26 312 1
26 447 1
26 564 1
27 92 1
27 123 1
27 178 1
27 194 1
27 215 1
27 384 1
27 431 1
27 464 1
27 481 1
27 491 1
27 495 1
27 500 1
27 516 1
27 589 1
28 61 1
28 95 1
28 233 1
28 258 1
28 265 1
28 267 1
28 289 1
28 309 1
28 323 1
28 469 1
28 481 1
28 528 1
28 532 1
28 586 1
29 54 1
29 114 1
29 214 1
29 279 1
29 301 1
29 345 1
29 347 1
29 379 1
29 396 1
29 416 1
29 573 1
29 574 1
30 61 1
30 76 1
30 77 1
30 99 1
30 264 1
30 296 1
30 337 1
30 341 1
30 369 1
30 471 1
30 485 1
30 517 1
30 520 1
31 32 1
31 93 1
31 157 1
31 165 1
31 226 1
31 283 1
31 296 1
31 339 1
31 391 1
31 413 1
31 477 1
31 560 1
31 586 1
32 44 1
32 45 1
32 94 1
32 105 1
32 112 1
32 144 1
32 211 1
32 293 1
32 298 1
32 412 1
32 535 1
32 563 1
32 586 1
33 79 1
33 128 1
33 211 1
33 258 1
33 325 1
33 352 1
33 372 1
33 377 1
33 382 1
33 458 1
33 526 1
34 36 1
34 45 1
34 98 1
34 186 1
34 189 1
34 225 1
34 366 1
34 379 1
34 398 1
34 436 1
34 438 1
34 583 1
34 591 1
35 36 1
35 118 1
35 128 1
35 149 1
35 169 1
35 178 1
35 259 1
35 301 1
35 388 1
35 469 1
35 519 1
35 533 1
35 561 1
36 142 1
36 155 1
36 191 1
36 195 1
36 206 1
36 230 1
36 400 1
36 442 1
36 582 1
37 121 1
37 122 1
37 136 1
37 255 1
37 332 1
37 335 1
37 354 1
37 384 1
37 422 1
37 488 1
37 489 1
37 492 1
37 531 1
37 598 1
38 48 1
38 93 1
38 171 1
38 223 1
38 227 1
38 239 1
38 268 1
38 292 1
38 337 1
38 456 1
38 457 1
38 534 1
38 567 1
39 80 1
39 106 1
39 169 1
39 203 1
39 237 1
39 266 1
39 269 1
39 389 1
39 413 1
39 425 1
39 450 1
39 502 1
39 508 1
40 59 1
40 118 1
40 127 1
40 134 1
40 144 1
40 191 1
40 232 1
40 256 1
40 307 1
40 386 1
40 401 1
40 455 1
40 458 1
40 581 1
41 94 1
41 130 1
41 203 1
41 231 1
41 246 1
41 264 1
41 315 1
41 373 1
41 399 1
41 407 1
41 438 1
41 561 1
42 46 1
42 124 1
42 150 1
42 183 1
42 256 1
42 333 1
42 343 1
42 362 1
42 438 1
42 525 1
42 532 1
42 565 1
43 184 1
43 186 1
43 194 1
43 251 1
43 286 1
43 326 1
43 341 1
43 348 1
43 443 1
43 509 1
43 533 1
43 542 1
43 568 1
44 74 1
44 93 1
44 96 1
44 100 1
44 113 1
44 114 1
44 128 1
44 274 1
44 347 1
44 414 1
44 423 1
44 500 1
44 571 1
44 591 1
45 74 1
45 105 1
45 146 1
45 238 1
45 275 1
45 304 1
45 320 1
45 340 1
45 369 1
45 388 1
45 524 1
45 550 1
45 563 1
46 92 1
46 318 1
46 431 1
46 439 1
46 457 1
46 479 1
46 486 1
46 518 1
46 532 1
46 540 1
46 574 1
46 577 1
47 88 1
47 102 1
47 121 1
47 170 1
47 258 1
47 274 1
47 275 1
47 352 1
47 364 1
47 372 1
47 376 1
47 405 1
47 478 1
48 74 1
48 121 1
48 128 1
48 141 1
48 258 1
48 316 1
48 395 1
48 434 1
48 464 1
48 502 1
48 547 1
49 95 1
49 147 1
49 168 1
49 175 1
49 201 1
49 255 1
49 259 1
49 302 1
49 346 1
49 354 1
49 533 1
49 564 1
50 91 1
50 113 1
50 154 1
50 275 1
50 334 1
50 402 1
50 406 1
50 464 1
50 504 1
50 542 1
50 591 1
51 91 1
51 187 1
51 312 1
51 331 1
51 405 1
51 410 1
51 413 1
51 550 1
51 555 1
51 585 1
51 598 1
52 61 1
52 91 1
52 93 1
52 146 1
52 151 1
52 153 1
52 168 1
52 216 1
52 423 1
52 511 1
52 523 1
52 550 1
52 577 1
53 65 1
53 78 1
53 92 1
53 144 1
53 191 1
53 209 1
53 319 1
53 356 1
53 458 1
53 509 1
53 588 1
54 104 1
54 115 1
54 244 1
54 258 1
54 279 1
54 285 1
54 343 1
54 346 1
54 352 1
54 405 1
54 461 1
55 63 1
55 102 1
55 137 1
55 153 1
55 190 1
55 408 1
55 412 1
55 475 1
55 526 1
55 554 1
56 78 1
56 111 1
56 228 1
56 305 1
56 352 1
56 365 1
56 403 1
56 413 1
56 447 1
56 479 1
56 526 1
56 575 1
57 91 1
57 249 1
57 301 1
57 327 1
57 348 1
57 384 1
57 388 1
57 479 1
57 543 1
57 555 1
57 590 1
58 71 1
58 194 1
58 269 1
58 272 1
58 292 1
58 301 1
58 410 1
58 499 1
58 533 1
58 564 1
59 77 1
59 167 1
59 180 1
59 187 1
59 202 1
59 244 1
59 302 1
59 365 1
59 398 1
59 453 1
59 501 1
59 552 1
59 571 1
60 116 1
60 142 1
60 184 1
60 215 1
60 379 1
60 385 1
60 434 1
60 495 1
60 499 1
60 552 1
60 586 1
60 596 1
61 101 1
61 126 1
61 128 1
61 328 1
61 428 1
61 444 1
61 487 1
61 497 1
61 558 1
61 572 1
61 594 1
62 82 1
62 109 1
62 426 1
62 471 1
62 489 1
62 572 1
62 586 1
63 112 1
63 203 1
63 297 1
63 354 1
63 364 1
63 438 1
63 496 1
63 516 1
63 528 1
63 563 1
63 581 1
63 582 1
63 600 1
64 73 1
64 78 1
64 234 1
64 316 1
64 329 1
64 334 1
64 360 1
64 366 1
64 391 1
64 453 1
64 459 1
64 484 1
64 513 1
65 94 1
65 118 1
65 129 1
65 148 1
65 187 1
65 225 1
65 270 1
65 284 1
65 547 1
65 556 1
66 125 1
66 135 1
66 224 1
66 262 1
66 298 1
66 334 1
66 347 1
66 386 1
66 401 1
66 406 1
66 465 1
66 487 1
66 562 1
67 78 1
67 87 1
67 94 1
67 121 1
67 204 1
67 303 1
67 310 1
67 326 1
67 358 1
67 440 1
67 505 1
67 570 1
67 584 1
68 126 1
68 201 1
68 213 1
68 283 1
68 286 1
68 336 1
68 409 1
68 508 1
68 560 1
68 584 1
68 590 1
69 140 1
69 169 1
69 189 1
69 194 1
69 199 1
69 334 1
69 420 1
69 474 1
69 513 1
69 532 1
69 543 1
70 86 1
70 125 1
70 230 1
70 311 1
70 323 1
70 433 1
70 458 1
70 467 1
70 477 1
70 519 1
70 559 1
71 87 1
71 89 1
71 103 1
71 124 1
71 183 1
71 327 1
71 337 1
71 422 1
71 498 1
72 115 1
72 125 1
72 132 1
72 196 1
72 226 1
72 244 1
72 298 1
72 336 1
72 368 1
72 385 1
72 390 1
72 391 1
72 428 1
72 580 1
73 119 1
73 271 1
73 303 1
73 384 1
73 392 1
73 410 1
73 414 1
73 448 1
73 548 1
73 557 1
73 576 1
74 106 1
74 208 1
74 271 1
74 275 1
74 424 1
74 444 1
74 490 1
74 505 1
75 83 1
75 116 1
75 173 1
75 198 1
75 249 1
75 264 1
75 323 1
75 384 1
75 412 1
75 419 1
75 547 1
76 157 1
76 188 1
76 242 1
76 327 1
76 453 1
76 491 1
76 506 1
76 563 1
77 152 1
77 153 1
77 186 1
77 218 1
77 231 1
77 266 1
77 307 1
77 374 1
77 453 1
77 475 1
77 490 1
77 540 1
77 561 1
78 127 1
78 142 1
78 173 1
78 187 1
78 406 1
78 420 1
78 439 1
78 484 1
78 564 1
78 568 1
78 573 1
79 106 1
79 138 1
79 140 1
79 143 1
79 209 1
79 221 1
79 296 1
79 325 1
79 456 1
79 550 1
80 83 1
80 162 1
80 197 1
80 200 1
80 288 1
80 303 1
80 351 1
80 563 1
80 568 1
80 594 1
81 127 1
81 178 1
81 223 1
81 414 1
81 442 1
81 459 1
81 487 1
81 499 1
81 512 1
81 526 1
81 544 1
81 600 1
82 129 1
82 212 1
82 260 1
82 265 1
82 286 1
82 294 1
82 349 1
82 477 1
82 554 1
82 578 1
82 591 1
83 148 1
83 217 1
83 315 1
83 322 1
83 452 1
83 462 1
83 499 1
83 540 1
83 563 1
83 579 1
83 580 1
84 113 1
84 121 1
84 130 1
84 158 1
84 256 1
84 425 1
84 462 1
84 517 1
84 520 1
84 535 1
85 225 1
85 228 1
85 258 1
85 297 1
85 392 1
85 409 1
85 477 1
85 488 1
85 534 1
85 574 1
85 588 1
86 129 1
86 188 1
86 244 1
86 298 1
86 330 1
86 345 1
86 370 1
86 420 1
86 457 1
86 472 1
86 502 1
87 185 1
87 197 1
87 221 1
87 229 1
87 259 1
87 272 1
87 430 1
87 469 1
87 530 1
87 564 1
87 587 1
88 96 1
88 119 1
88 122 1
88 127 1
88 165 1
88 291 1
88 352 1
88 424 1
88 444 1
89 178 1
89 179 1
89 194 1
89 321 1
89 385 1
89 395 1
89 405 1
89 460 1
89 482 1
89 486 1
90 113 1
90 117 1
90 136 1
90 165 1
90 327 1
90 404 1
90 471 1
90 499 1
90 547 1
90 550 1
90 570 1
90 586 1
90 596 1
91 130 1
91 142 1
91 154 1
91 166 1
91 203 1
91 327 1
91 421 1
91 452 1
91 458 1
91 509 1
91 532 1
91 533 1
91 586 1
92 96 1
92 211 1
92 240 1
92 450 1
92 479 1
92 519 1
92 534 1
93 128 1
93 177 1
93 222 1
93 246 1
93 279 1
93 357 1
93 377 1
93 417 1
93 523 1
93 532 1
93 540 1
93 549 1
94 131 1
94 134 1
94 138 1
94 183 1
94 207 1
94 236 1
94 240 1
94 301 1
94 441 1
94 473 1
94 483 1
94 542 1
95 188 1
95 201 1
95 274 1
95 308 1
95 371 1
95 442 1
95 454 1
95 484 1
95 519 1
95 535 1
95 555 1
96 107 1
96 185 1
96 193 1
96 199 1
96 293 1
96 311 1
96 314 1
96 349 1
96 415 1
96 438 1
96 555 1
96 596 1
97 108 1
97 163 1
97 164 1
97 377 1
97 447 1
97 497 1
97 542 1
97 550 1
97 552 1
98 162 1
98 165 1
98 184 1
98 270 1
98 299 1
98 319 1
98 322 1
98 341 1
98 352 1
98 371 1
98 523 1
98 565 1
98 573 1
98 584 1
99 117 1
99 145 1
99 162 1
99 289 1
99 319 1
99 338 1
99 352 1
99 382 1
99 496 1
99 550 1
99 586 1
100 107 1
100 125 1
100 141 1
100 143 1
100 173 1
100 178 1
100 221 1
100 402 1
100 446 1
100 450 1
100 513 1
101 285 1
101 307 1
101 310 1
101 314 1
101 382 1
101 415 1
101 420 1
101 423 1
101 527 1
101 533 1
101 593 1
102 122 1
102 149 1
102 165 1
102 251 1
102 256 1
102 304 1
102 321 1
102 395 1
102 438 1
102 457 1
102 511 1
103 129 1
103 131 1
103 207 1
103 268 1
103 315 1
103 381 1
103 388 1
103 458 1
103 484 1
103 528 1
104 121 1
104 135 1
104 188 1
104 197 1
104 269 1
104 301 1
104 302 1
104 387 1
104 406 1
104 420 1
104 464 1
105 125 1
105 134 1
105 221 1
105 256 1
105 299 1
105 313 1
105 422 1
105 429 1
105 478 1
105 584 1
106 216 1
106 261 1
106 323 1
106 324 1
106 331 1
106 362 1
106 402 1
106 405 1
106 419 1
106 461 1
106 474 1
106 592 1
107 119 1
107 170 1
107 199 1
107 219 1
107 237 1
107 278 1
107 294 1
107 353 1
107 356 1
107 420 1
107 423 1
107 439 1
107 471 1
108 118 1
108 150 1
108 195 1
108 280 1
108 320 1
108 453 1
108 461 1
108 487 1
108 534 1
108 537 1
108 564 1
108 584 1
109 194 1
109 211 1
109 261 1
109 274 1
109 432 1
109 496 1
109 515 1
110 119 1
110 147 1
110 166 1
110 181 1
110 211 1
110 215 1
110 246 1
110 265 1
110 359 1
110 401 1
110 408 1
110 473 1
110 488 1
110 592 1
111 114 1
111 165 1
111 235 1
111 255 1
111 266 1
111 356 1
111 379 1
111 384 1
111 402 1
111 488 1
111 580 1
111 597 1
112 119 1
112 175 1
112 235 1
112 319 1
112 321 1
112 336 1
112 371 1
112 425 1
112 477 1
112 499 1
113 142 1
113 220 1
113 287 1
113 303 1
113 350 1
113 394 1
113 481 1
113 507 1
113 533 1
113 539 1
114 200 1
114 268 1
114 269 1
114 283 1
114 305 1
114 309 1
114 403 1
114 405 1
114 430 1
114 498 1
115 119 1
115 139 1
115 152 1
115 192 1
115 260 1
115 318 1
115 383 1
115 398 1
115 450 1
115 485 1
116 132 1
116 144 1
116 331 1
116 354 1
116 375 1
116 381 1
116 414 1
116 442 1
116 493 1
116 540 1
117 123 1
117 157 1
117 271 1
117 274 1
117 330 1
117 432 1
117 433 1
117 449 1
117 523 1
117 528 1
117 579 1
118 228 1
118 272 1
118 282 1
118 289 1
118 424 1
118 435 1
118 441 1
118 462 1
118 561 1
118 589 1
119 187 1
119 189 1
119 192 1
119 246 1
119 251 1
119 361 1
119 368 1
119 424 1
119 513 1
119 564 1
119 579 1
120 162 1
120 169 1
120 185 1
120 200 1
120 329 1
120 362 1
120 415 1
120 502 1
120 504 1
120 571 1
121 167 1
121 315 1
121 322 1
121 368 1
121 385 1
121 389 1
121 478 1
121 570 1
121 579 1
122 165 1
122 297 1
122 303 1
122 351 1
122 365 1
122 442 1
122 444 1
122 451 1
122 502 1
122 591 1
122 600 1
123 136 1
123 172 1
123 316 1
123 336 1
123 453 1
123 458 1
123 508 1
123 509 1
123 519 1
123 523 1
124 134 1
124 256 1
124 267 1
124 280 1
124 294 1
124 299 1
124 313 1
124 348 1
124 388 1
124 501 1
124 507 1
124 548 1
125 138 1
125 156 1
125 198 1
125 204 1
125 264 1
125 334 1
125 351 1
125 444 1
125 540 1
125 595 1
126 274 1
126 305 1
126 307 1
126 479 1
126 561 1
127 159 1
127 201 1
127 230 1
127 266 1
127 280 1
127 354 1
127 380 1
127 402 1
127 409 1
127 453 1
127 537 1
127 570 1
128 139 1
128 152 1
128 158 1
128 182 1
128 238 1
128 280 1
128 343 1
128 357 1
128 398 1
128 488 1
128 520 1
128 539 1
129 133 1
129 240 1
129 286 1
129 343 1
129 354 1
129 383 1
129 401 1
129 485 1
129 533 1
130 132 1
130 245 1
130 287 1
130 303 1
130 305 1
130 387 1
130 389 1
130 424 1
130 453 1
130 542 1
130 545 1
131 210 1
131 279 1
131 291 1
131 326 1
131 384 1
131 392 1
131 401 1
131 404 1
131 552 1
132 161 1
132 284 1
132 285 1
132 340 1
132 359 1
132 407 1
132 438 1
132 460 1
132 497 1
132 536 1
133 155 1
133 163 1
133 317 1
133 325 1
133 336 1
133 386 1
133 420 1
133 430 1
133 479 1
134 138 1
134 164 1
134 190 1
134 290 1
134 309 1
134 314 1
134 370 1
134 414 1
134 481 1
134 549 1
134 556 1
134 560 1
135 245 1
135 260 1
135 348 1
135 469 1
135 473 1
135 477 1
135 496 1
135 518 1
135 522 1
135 534 1
135 540 1
135 559 1
135 578 1
136 147 1
136 317 1
136 333 1
136 385 1
136 399 1
136 423 1
136 438 1
136 492 1
136 571 1
136 574 1
137 148 1
137 194 1
137 255 1
137 307 1
137 326 1
137 375 1
137 393 1
137 447 1
137 536 1
137 540 1
138 234 1
138 262 1
138 282 1
138 320 1
138 365 1
138 404 1
138 406 1
138 427 1
138 483 1
138 534 1
138 537 1
138 545 1
138 558 1
139 150 1
139 222 1
139 294 1
139 314 1
139 320 1
139 400 1
139 467 1
139 477 1
139 492 1
139 507 1
140 155 1
140 264 1
140 311 1
140 325 1
140 385 1
140 391 1
140 476 1
140 498 1
140 507 1
140 515 1
140 516 1
141 146 1
141 207 1
141 275 1
141 289 1
141 321 1
141 407 1
141 452 1
141 582 1
142 146 1
142 149 1
142 176 1
142 200 1
142 218 1
142 402 1
142 410 1
142 463 1
142 558 1
142 563 1
142 584 1
143 184 1
143 227 1
143 244 1
143 275 1
143 367 1
143 377 1
143 485 1
143 504 1
144 182 1
144 317 1
144 319 1
144 406 1
144 410 1
144 427 1
144 449 1
144 559 1
145 149 1
145 274 1
145 297 1
145 304 1
145 376 1
145 410 1
145 450 1
145 530 1
145 565 1
146 238 1
146 272 1
146 309 1
146 336 1
146 344 1
146 358 1
146 390 1
146 393 1
146 442 1
146 488 1
146 515 1
147 249 1
147 263 1
147 351 1
147 425 1
147 440 1
147 471 1
147 518 1
147 536 1
147 591 1
147 596 1
148 187 1
148 224 1
148 287 1
148 291 1
148 305 1
148 352 1
148 377 1
148 441 1
148 474 1
148 475 1
148 489 1
149 168 1
149 180 1
149 231 1
149 251 1
149 308 1
149 330 1
149 365 1
149 382 1
149 458 1
149 557 1
150 161 1
150 162 1
150 168 1
150 169 1
150 202 1
150 265 1
150 295 1
150 314 1
150 327 1
150 450 1
150 514 1
151 178 1
151 204 1
151 312 1
151 350 1
151 416 1
151 475 1
151 551 1
151 587 1
152 173 1
152 275 1
152 289 1
152 369 1
152 380 1
152 438 1
152 569 1
152 599 1
153 247 1
153 393 1
153 486 1
153 519 1
153 527 1
153 538 1
153 599 1
154 207 1
154 295 1
154 306 1
154 346 1
154 464 1
154 488 1
154 495 1
154 543 1
155 273 1
155 285 1
155 353 1
155 358 1
155 396 1
155 444 1
155 468 1
155 555 1
155 557 1
155 560 1
155 585 1
155 594 1
156 195 1
156 196 1
156 215 1
156 305 1
156 306 1
156 370 1
156 400 1
156 412 1
156 414 1
156 544 1
156 565 1
156 596 1
157 293 1
157 295 1
157 307 1
157 356 1
157 372 1
157 393 1
157 405 1
157 465 1
157 489 1
158 161 1
158 232 1
158 259 1
158 412 1
158 422 1
158 464 1
158 513 1
158 570 1
158 591 1
159 161 1
159 168 1
159 198 1
159 203 1
159 236 1
159 316 1
159 341 1
159 397 1
159 415 1
159 537 1
160 184 1
160 242 1
160 364 1
160 388 1
160 406 1
160 410 1
160 460 1
160 566 1
161 279 1
161 288 1
161 360 1
161 421 1
161 466 1
161 468 1
161 491 1
161 505 1
161 550 1
161 567 1
162 234 1
162 259 1
162 267 1
162 289 1
162 307 1
162 340 1
162 372 1
162 486 1
162 554 1
162 564 1
162 600 1
163 176 1
163 189 1
163 226 1
163 253 1
163 377 1
163 386 1
163 388 1
163 464 1
163 480 1
163 511 1
164 173 1
164 181 1
164 236 1
164 247 1
164 278 1
164 362 1
164 367 1
164 411 1
164 549 1
164 584 1
164 593 1
165 218 1
165 231 1
165 252 1
165 290 1
165 306 1
165 330 1
165 398 1
165 422 1
165 430 1
165 560 1
165 584 1
166 248 1
166 282 1
166 328 1
166 410 1
166 424 1
166 435 1
166 441 1
166 511 1
166 514 1
166 564 1
166 584 1
167 172 1
167 223 1
167 348 1
167 364 1
167 374 1
167 431 1
167 442 1
167 446 1
167 495 1
167 517 1
167 549 1
167 556 1
168 380 1
168 424 1
168 483 1
168 484 1
168 535 1
168 599 1
169 217 1
169 255 1
169 305 1
169 371 1
169 440 1
169 459 1
169 482 1
169 487 1
169 575 1
170 289 1
170 353 1
170 393 1
170 417 1
170 514 1
170 516 1
170 533 1
170 541 1
170 582 1
171 172 1
171 188 1
171 195 1
171 274 1
171 288 1
171 335 1
171 420 1
171 470 1
171 481 1
171 486 1
171 496 1
172 284 1
172 346 1
172 370 1
172 374 1
172 438 1
172 506 1
172 519 1
172 552 1
173 247 1
173 314 1
173 331 1
173 526 1
173 536 1
173 567 1
173 576 1
173 587 1
173 593 1
173 595 1
174 212 1
174 237 1
174 270 1
174 311 1
174 368 1
174 428 1
174 457 1
174 471 1
174 567 1
175 211 1
175 218 1
175 285 1
175 292 1
175 304 1
175 338 1
175 373 1
175 433 1
175 490 1
175 516 1
175 577 1
176 197 1
176 240 1
176 247 1
176 396 1
176 405 1
176 428 1
176 439 1
176 478 1
176 494 1
176 501 1
176 510 1
176 575 1
177 231 1
177 243 1
177 328 1
177 330 1
177 439 1
177 465 1
178 212 1
178 250 1
178 263 1
178 338 1
178 365 1
178 393 1
178 418 1
178 472 1
178 515 1
178 519 1
179 200 1
179 203 1
179 270 1
179 276 1
179 305 1
179 380 1
179 400 1
179 517 1
179 557 1
179 570 1
179 581 1
179 589 1
180 212 1
180 250 1
180 310 1
180 438 1
180 478 1
180 508 1
181 203 1
181 228 1
181 232 1
181 247 1
181 312 1
181 323 1
181 347 1
181 405 1
181 418 1
181 484 1
181 502 1
181 533 1
182 196 1
182 264 1
182 307 1
182 329 1
182 341 1
182 393 1
182 420 1
182 465 1
182 483 1
182 525 1
182 587 1
183 224 1
183 247 1
183 296 1
183 302 1
183 365 1
183 411 1
183 420 1
183 429 1
183 465 1
183 580 1
184 211 1
184 214 1
184 249 1
184 321 1
184 354 1
184 373 1
184 440 1
184 456 1
184 460 1
185 219 1
185 279 1
185 345 1
185 365 1
185 367 1
185 417 1
185 437 1
185 480 1
185 534 1
186 199 1
186 206 1
186 242 1
186 277 1
186 285 1
186 342 1
186 418 1
186 497 1
187 218 1
187 333 1
187 440 1
187 486 1
187 501 1
187 510 1
187 574 1
187 593 1
188 239 1
188 244 1
188 331 1
188 384 1
188 437 1
188 475 1
188 541 1
188 586 1
188 596 1
189 286 1
189 328 1
189 368 1
189 384 1
189 418 1
189 452 1
190 344 1
190 368 1
190 401 1
190 460 1
190 508 1
190 525 1
190 531 1
190 533 1
190 537 1
190 594 1
191 219 1
191 237 1
191 384 1
191 386 1
191 493 1
191 513 1
191 558 1
192 219 1
192 220 1
192 260 1
192 310 1
192 376 1
192 379 1
192 399 1
192 512 1
192 525 1
193 203 1
193 245 1
193 288 1
193 351 1
193 363 1
193 368 1
193 511 1
193 553 1
194 240 1
194 298 1
194 327 1
194 328 1
194 408 1
194 428 1
194 431 1
194 563 1
195 211 1
195 230 1
195 399 1
195 403 1
195 430 1
195 440 1
195 446 1
195 504 1
195 567 1
195 593 1
196 206 1
196 221 1
196 225 1
196 237 1
196 306 1
196 346 1
196 435 1
196 486 1
196 515 1
197 258 1
197 297 1
197 360 1
197 437 1
197 469 1
197 479 1
197 551 1
197 565 1
197 572 1
198 243 1
198 369 1
198 378 1
198 430 1
198 459 1
198 549 1
198 553 1
199 276 1
199 298 1
199 314 1
199 370 1
199 383 1
199 393 1
199 408 1
199 409 1
199 459 1
199 489 1
199 547 1
200 203 1
200 238 1
200 270 1
200 288 1
200 315 1
200 321 1
200 336 1
200 339 1
200 397 1
200 540 1
200 570 1
201 249 1
201 336 1
201 345 1
201 364 1
201 398 1
201 402 1
201 411 1
201 445 1
201 482 1
201 539 1
201 557 1
202 249 1
202 288 1
202 376 1
202 454 1
202 520 1
202 529 1
203 220 1
203 284 1
203 300 1
203 320 1
203 356 1
203 397 1
203 561 1
203 579 1
203 581 1
203 590 1
203 600 1
204 259 1
204 295 1
204 321 1
204 355 1
204 366 1
204 412 1
204 452 1
204 466 1
204 467 1
204 510 1
204 512 1
204 560 1
204 595 1
205 222 1
205 300 1
205 310 1
205 441 1
205 455 1
205 549 1
205 594 1
205 596 1
206 322 1
206 340 1
206 386 1
206 418 1
206 436 1
206 446 1
206 544 1
207 217 1
207 247 1
207 288 1
207 316 1
207 348 1
207 410 1
207 469 1
207 513 1
207 579 1
207 590 1
207 595 1
208 216 1
208 218 1
208 249 1
208 250 1
208 265 1
208 312 1
208 348 1
208 434 1
208 438 1
209 210 1
209 265 1
209 270 1
209 360 1
209 372 1
209 415 1
209 461 1
209 560 1
210 251 1
210 365 1
210 426 1
210 493 1
210 503 1
210 510 1
210 541 1
210 559 1
211 251 1
211 290 1
211 308 1
211 348 1
211 354 1
211 356 1
211 584 1
212 241 1
212 327 1
212 340 1
212 431 1
212 445 1
212 449 1
212 586 1
212 592 1
213 278 1
213 378 1
213 460 1
213 483 1
213 495 1
213 530 1
213 570 1
214 293 1
214 357 1
214 363 1
214 373 1
214 418 1
214 460 1
214 489 1
214 533 1
214 534 1
215 239 1
215 242 1
215 282 1
215 288 1
215 299 1
215 339 1
215 443 1
215 461 1
215 513 1
215 552 1
215 563 1
216 238 1
216 244 1
216 246 1
216 270 1
216 321 1
216 325 1
216 349 1
216 469 1
216 500 1
216 545 1
216 596 1
217 239 1
217 250 1
217 345 1
217 364 1
217 390 1
217 435 1
217 498 1
217 506 1
217 518 1
217 591 1
218 241 1
218 255 1
218 277 1
218 293 1
218 330 1
218 413 1
218 561 1
219 234 1
219 289 1
219 294 1
219 331 1
219 336 1
219 361 1
219 376 1
220 232 1
220 233 1
220 265 1
220 283 1
220 300 1
220 387 1
220 395 1
220 475 1
220 583 1
221 240 1
221 246 1
221 326 1
221 414 1
221 471 1
221 532 1
222 252 1
222 404 1
222 417 1
222 473 1
222 521 1
222 552 1
222 562 1
222 588 1
222 589 1
222 591 1
223 259 1
223 319 1
223 394 1
223 439 1
223 465 1
223 478 1
223 572 1
223 585 1
224 242 1
224 370 1
224 398 1
224 479 1
224 491 1
224 547 1
224 586 1
224 590 1
225 319 1
225 378 1
225 433 1
225 456 1
225 466 1
225 493 1
225 513 1
225 530 1
225 536 1
225 543 1
225 567 1
226 229 1
226 282 1
226 285 1
226 286 1
226 334 1
226 494 1
226 504 1
227 233 1
227 290 1
227 350 1
227 401 1
227 440 1
227 443 1
227 474 1
227 475 1
227 499 1
227 505 1
227 584 1
228 277 1
228 279 1
228 297 1
228 378 1
228 432 1
228 440 1
228 478 1
228 501 1
228 555 1
228 586 1
228 594 1
229 239 1
229 336 1
229 345 1
229 361 1
229 384 1
229 441 1
229 541 1
229 559 1
229 571 1
230 243 1
230 436 1
230 535 1
230 546 1
230 560 1
230 582 1
231 328 1
231 332 1
231 391 1
231 392 1
231 399 1
231 438 1
231 492 1
231 502 1
232 357 1
232 364 1
232 391 1
232 426 1
232 454 1
232 475 1
232 502 1
232 556 1
233 241 1
233 287 1
233 329 1
233 349 1
233 396 1
233 453 1
233 531 1
234 263 1
234 374 1
234 401 1
234 427 1
234 463 1
234 551 1
234 557 1
234 580 1
235 244 1
235 266 1
235 321 1
235 342 1
235 427 1
235 464 1
235 480 1
235 534 1
235 564 1
235 568 1
236 270 1
236 381 1
236 477 1
236 541 1
236 565 1
237 239 1
237 262 1
237 312 1
237 465 1
237 473 1
237 492 1
237 524 1
237 535 1
237 543 1
237 569 1
237 583 1
237 589 1
238 297 1
238 303 1
238 309 1
238 393 1
238 407 1
238 481 1
238 502 1
238 559 1
238 584 1
238 592 1
239 262 1
239 419 1
239 420 1
239 505 1
239 542 1
239 571 1
239 594 1
240 256 1
240 268 1
240 390 1
240 419 1
240 483 1
240 522 1
240 553 1
240 578 1
240 597 1
241 295 1
241 337 1
241 363 1
241 409 1
241 431 1
241 441 1
241 464 1
241 474 1
241 564 1
241 585 1
242 356 1
242 376 1
242 395 1
242 494 1
242 566 1
243 298 1
243 303 1
243 309 1
243 493 1
243 566 1
243 583 1
244 321 1
244 374 1
244 377 1
244 452 1
244 567 1
244 582 1
244 587 1
245 272 1
245 352 1
245 406 1
245 413 1
245 419 1
245 523 1
245 558 1
245 564 1
245 567 1
246 249 1
246 259 1
246 310 1
246 351 1
246 385 1
246 401 1
246 498 1
246 499 1
246 557 1
247 391 1
247 416 1
247 473 1
247 513 1
247 586 1
248 255 1
248 267 1
248 309 1
248 411 1
248 448 1
248 464 1
248 496 1
248 525 1
248 551 1
248 587 1
249 278 1
249 342 1
249 369 1
249 421 1
249 441 1
249 542 1
250 266 1
250 396 1
250 413 1
250 501 1
250 584 1
251 274 1
251 284 1
251 390 1
251 433 1
251 481 1
251 487 1
252 352 1
252 391 1
252 421 1
252 452 1
252 457 1
252 468 1
252 529 1
252 589 1
253 359 1
253 379 1
253 428 1
253 475 1
253 507 1
253 567 1
253 587 1
254 289 1
254 296 1
254 303 1
254 328 1
254 333 1
254 385 1
254 440 1
254 487 1
255 293 1
255 295 1
255 312 1
255 362 1
255 394 1
255 446 1
255 507 1
255 547 1
256 311 1
256 347 1
256 424 1
256 456 1
256 594 1
257 273 1
257 284 1
257 322 1
257 328 1
257 345 1
257 450 1
257 470 1
257 596 1
258 287 1
258 346 1
258 446 1
258 496 1
258 572 1
259 302 1
259 322 1
259 420 1
259 423 1
259 477 1
259 535 1
259 540 1
260 280 1
260 392 1
260 450 1
260 476 1
260 480 1
260 528 1
260 559 1
260 596 1
261 267 1
261 282 1
261 373 1
261 448 1
261 452 1
261 465 1
261 488 1
261 500 1
261 543 1
261 555 1
262 302 1
262 307 1
262 333 1
262 409 1
262 432 1
262 442 1
262 493 1
263 382 1
263 400 1
263 409 1
263 453 1
263 536 1
263 554 1
263 577 1
264 369 1
264 382 1
264 398 1
264 413 1
264 468 1
264 487 1
264 571 1
265 267 1
265 349 1
265 384 1
265 389 1
265 396 1
265 412 1
265 501 1
265 531 1
266 331 1
266 346 1
266 409 1
266 461 1
266 523 1
266 561 1
266 575 1
267 311 1
267 441 1
267 444 1
267 468 1
267 526 1
267 562 1
268 298 1
268 300 1
268 310 1
268 333 1
268 350 1
268 434 1
268 482 1
268 523 1
269 280 1
269 327 1
269 330 1
269 356 1
269 487 1
269 513 1
269 579 1
269 595 1
270 280 1
270 301 1
270 304 1
270 452 1
270 453 1
270 499 1
271 299 1
271 331 1
271 370 1
271 396 1
271 416 1
271 507 1
271 536 1
271 545 1
271 556 1
271 580 1
272 294 1
272 374 1
272 387 1
272 421 1
272 435 1
272 485 1
272 537 1
272 599 1
273 378 1
273 501 1
273 549 1
273 551 1
274 352 1
274 394 1
274 407 1
274 497 1
274 512 1
274 532 1
274 537 1
274 539 1
275 312 1
275 316 1
275 329 1
275 402 1
276 328 1
276 344 1
276 388 1
276 438 1
276 458 1
276 553 1
276 573 1
276 575 1
277 362 1
277 402 1
277 409 1
277 410 1
277 421 1
277 472 1
277 581 1
277 600 1
278 290 1
278 317 1
278 395 1
278 433 1
278 450 1
278 549 1
278 554 1
279 305 1
279 340 1
279 385 1
279 512 1
279 575 1
280 338 1
280 367 1
280 445 1
280 514 1
280 536 1
281 308 1
281 328 1
281 499 1
281 522 1
282 285 1
282 323 1
282 367 1
282 420 1
282 444 1
282 514 1
282 574 1
283 294 1
283 373 1
283 418 1
283 435 1
283 453 1
283 477 1
283 525 1
283 599 1
284 291 1
284 360 1
284 448 1
284 452 1
284 526 1
285 290 1
285 319 1
285 391 1
285 448 1
285 465 1
285 600 1
286 411 1
286 459 1
286 511 1
286 561 1
286 595 1
287 307 1
287 419 1
287 475 1
287 486 1
287 579 1
287 586 1
288 360 1
288 367 1
288 405 1
288 410 1
288 495 1
288 524 1
289 395 1
289 406 1
289 469 1
289 507 1
289 541 1
290 321 1
290 350 1
290 363 1
290 365 1
290 376 1
290 378 1
290 433 1
290 450 1
290 467 1
290 517 1
290 542 1
291 296 1
291 353 1
291 374 1
291 419 1
291 424 1
291 465 1
291 483 1
291 501 1
291 598 1
292 338 1
292 342 1
292 351 1
292 364 1
292 464 1
292 477 1
292 547 1
292 548 1
293 307 1
293 445 1
293 450 1
293 513 1
293 546 1
293 566 1
294 296 1
294 309 1
294 342 1
294 390 1
294 432 1
294 441 1
295 322 1
295 344 1
295 448 1
295 528 1
296 326 1
296 397 1
296 398 1
296 429 1
296 443 1
296 472 1
297 374 1
297 377 1
297 386 1
297 463 1
297 492 1
297 547 1
298 310 1
298 383 1
298 415 1
298 417 1
298 435 1
298 469 1
298 523 1
298 540 1
299 306 1
299 366 1
299 401 1
299 454 1
299 549 1
299 583 1
300 359 1
300 371 1
300 382 1
300 558 1
301 310 1
301 347 1
301 409 1
301 504 1
302 352 1
302 357 1
302 436 1
302 503 1
302 513 1
303 384 1
303 389 1
303 406 1
303 528 1
303 545 1
303 566 1
303 586 1
303 587 1
304 350 1
304 358 1
304 410 1
304 444 1
304 447 1
304 461 1
304 487 1
304 517 1
304 529 1
305 407 1
305 422 1
305 426 1
305 487 1
305 492 1
305 493 1
305 502 1
305 508 1
305 566 1
306 354 1
306 433 1
306 472 1
306 535 1
307 347 1
307 380 1
307 414 1
307 468 1
307 506 1
307 537 1
308 310 1
308 329 1
308 332 1
308 340 1
308 378 1
308 446 1
308 524 1
308 530 1
308 535 1
308 552 1
309 432 1
309 433 1
309 468 1
309 580 1
309 581 1
310 350 1
310 352 1
310 368 1
310 382 1
310 478 1
310 515 1
310 574 1
310 598 1
311 326 1
311 332 1
311 385 1
311 398 1
311 402 1
311 507 1
311 523 1
311 559 1
312 318 1
312 336 1
312 358 1
312 370 1
312 373 1
312 447 1
312 543 1
312 564 1
313 379 1
313 382 1
313 420 1
313 486 1
314 411 1
314 433 1
314 445 1
314 474 1
314 489 1
314 500 1
315 371 1
315 385 1
315 498 1
315 520 1
315 530 1
316 330 1
316 424 1
316 474 1
316 483 1
316 504 1
317 360 1
317 416 1
317 423 1
317 487 1
317 519 1
317 534 1
318 351 1
318 390 1
318 475 1
318 514 1
318 521 1
319 361 1
319 370 1
319 373 1
319 423 1
319 452 1
319 453 1
319 467 1
319 478 1
319 482 1
319 593 1
320 351 1
320 363 1
320 374 1
320 380 1
320 484 1
320 498 1
321 350 1
321 394 1
321 439 1
321 464 1
321 528 1
321 533 1
321 562 1
321 585 1
322 323 1
322 375 1
322 393 1
322 402 1
322 403 1
322 492 1
322 494 1
322 508 1
323 401 1
323 414 1
323 503 1
323 550 1
323 554 1
323 576 1
324 329 1
324 344 1
324 368 1
324 394 1
324 409 1
324 425 1
324 487 1
324 535 1
324 589 1
325 335 1
325 363 1
325 396 1
325 434 1
325 457 1
325 492 1
325 568 1
326 329 1
326 414 1
326 507 1
326 512 1
326 552 1
327 377 1
327 412 1
327 494 1
327 524 1
328 383 1
328 400 1
328 477 1
328 501 1
328 504 1
328 513 1
328 523 1
328 596 1
329 423 1
329 435 1
329 445 1
329 469 1
329 481 1
329 587 1
329 597 1
330 367 1
330 369 1
330 427 1
330 517 1
330 580 1
331 341 1
331 342 1
331 361 1
331 393 1
331 394 1
331 413 1
331 566 1
332 395 1
332 461 1
332 527 1
332 546 1
332 569 1
332 586 1
333 339 1
333 578 1
333 593 1
334 365 1
334 420 1
334 490 1
335 378 1
335 390 1
335 391 1
335 435 1
335 592 1
336 365 1
336 488 1
336 532 1
336 543 1
336 552 1
336 583 1
336 584 1
337 358 1
337 433 1
337 485 1
337 522 1
337 525 1
337 556 1
338 352 1
338 357 1
338 555 1
338 587 1
338 595 1
339 383 1
339 390 1
339 401 1
339 447 1
339 456 1
339 480 1
339 537 1
339 565 1
339 588 1
340 469 1
340 470 1
340 520 1
340 588 1
341 367 1
341 386 1
341 405 1
341 531 1
342 380 1
342 390 1
342 403 1
342 410 1
342 456 1
342 464 1
342 523 1
342 577 1
343 345 1
343 440 1
343 487 1
343 505 1
343 566 1
343 584 1
344 352 1
344 365 1
344 390 1
344 431 1
344 436 1
344 442 1
344 532 1
344 535 1
345 354 1
345 388 1
345 450 1
345 543 1
346 350 1
346 378 1
346 481 1
346 483 1
346 503 1
346 542 1
347 405 1
347 447 1
347 468 1
347 543 1
347 598 1
348 358 1
348 455 1
348 459 1
348 479 1
348 564 1
348 592 1
348 593 1
349 351 1
349 366 1
349 420 1
349 450 1
349 551 1
349 560 1
350 355 1
350 362 1
350 400 1
350 574 1
351 391 1
351 475 1
351 484 1
351 487 1
351 522 1
351 564 1
351 596 1
352 354 1
352 371 1
352 428 1
352 525 1
352 567 1
353 432 1
353 581 1
354 485 1
354 524 1
354 549 1
354 558 1
354 599 1
355 433 1
355 572 1
355 591 1
356 435 1
356 449 1
356 450 1
356 488 1
356 513 1
356 516 1
356 588 1
357 412 1
357 513 1
358 391 1
358 422 1
358 438 1
358 487 1
358 489 1
358 510 1
358 587 1
359 399 1
359 591 1
360 382 1
360 431 1
360 437 1
360 485 1
360 493 1
360 496 1
360 505 1
361 436 1
361 444 1
361 459 1
361 485 1
361 499 1
361 503 1
361 530 1
361 565 1
362 365 1
362 368 1
362 381 1
362 384 1
362 440 1
362 478 1
362 522 1
363 419 1
363 444 1
363 484 1
363 490 1
363 571 1
363 575 1
363 596 1
364 438 1
365 414 1
365 484 1
365 529 1
365 544 1
365 571 1
366 458 1
366 462 1
366 480 1
366 511 1
366 564 1
367 375 1
367 437 1
367 487 1
367 504 1
367 527 1
368 375 1
368 412 1
368 437 1
368 450 1
368 467 1
368 487 1
368 585 1
369 413 1
369 439 1
369 457 1
369 515 1
369 544 1
369 597 1
370 399 1
370 437 1
370 473 1
370 512 1
370 590 1
371 382 1
371 563 1
371 573 1
372 403 1
372 446 1
372 541 1
372 556 1
372 596 1
373 406 1
373 481 1
373 558 1
373 589 1
374 399 1
374 416 1
374 458 1
374 498 1
374 525 1
375 380 1
375 388 1
375 394 1
375 410 1
375 422 1
375 480 1
375 542 1
375 550 1
375 563 1
376 401 1
376 458 1
376 566 1
377 388 1
377 460 1
377 517 1
377 546 1
377 597 1
378 459 1
378 475 1
378 540 1
378 543 1
378 582 1
379 415 1
379 462 1
379 481 1
379 494 1
380 458 1
380 476 1
380 546 1
380 574 1
381 382 1
381 394 1
381 480 1
381 498 1
381 588 1
382 425 1
382 427 1
382 575 1
383 498 1
383 569 1
383 589 1
384 407 1
384 428 1
384 434 1
384 462 1
384 552 1
385 465 1
385 483 1
385 517 1
385 518 1
385 530 1
385 539 1
385 548 1
385 570 1
385 580 1
386 454 1
386 485 1
386 489 1
386 525 1
387 422 1
387 457 1
387 497 1
388 534 1
388 566 1
388 582 1
388 594 1
389 439 1
389 444 1
389 573 1
390 465 1
390 480 1
390 481 1
390 511 1
390 520 1
390 579 1
391 475 1
391 548 1
391 565 1
392 470 1
392 556 1
392 563 1
393 413 1
393 452 1
393 484 1
393 531 1
393 533 1
393 580 1
394 527 1
394 537 1
395 429 1
395 569 1
395 574 1
395 581 1
395 600 1
396 510 1
396 525 1
396 551 1
397 482 1
397 485 1
397 569 1
397 596 1
398 408 1
398 422 1
398 437 1
398 443 1
398 454 1
399 413 1
399 472 1
399 521 1
399 541 1
400 470 1
400 592 1
401 407 1
401 452 1
401 498 1
401 587 1
401 600 1
402 445 1
402 464 1
402 495 1
403 476 1
403 485 1
403 496 1
403 500 1
403 504 1
403 523 1
403 541 1
403 545 1
404 427 1
404 518 1
404 564 1
404 593 1
405 452 1
405 493 1
406 472 1
406 508 1
406 526 1
406 565 1
406 572 1
406 590 1
407 423 1
407 520 1
407 527 1
407 563 1
408 509 1
408 522 1
408 562 1
409 485 1
409 543 1
409 580 1
410 524 1
410 591 1
411 416 1
411 420 1
411 452 1
411 519 1
411 549 1
411 552 1
411 568 1
412 450 1
412 469 1
412 473 1
412 493 1
412 508 1
413 416 1
413 459 1
413 464 1
413 521 1
413 578 1
413 599 1
414 493 1
414 539 1
414 566 1
415 446 1
415 466 1
415 525 1
415 547 1
416 418 1
416 421 1
416 429 1
416 450 1
416 550 1
416 560 1
416 592 1
417 533 1
417 553 1
417 567 1
417 571 1
417 574 1
418 443 1
418 485 1
418 540 1
418 565 1
419 432 1
419 442 1
419 482 1
419 484 1
419 532 1
419 547 1
419 560 1
419 589 1
420 431 1
420 467 1
420 542 1
421 436 1
421 516 1
421 539 1
422 482 1
422 492 1
422 531 1
422 596 1
423 495 1
423 590 1
424 514 1
424 579 1
425 441 1
425 446 1
425 489 1
425 500 1
425 526 1
426 431 1
426 551 1
426 555 1
427 452 1
427 482 1
427 522 1
427 529 1
428 462 1
428 564 1
429 432 1
429 492 1
429 508 1
429 564 1
429 580 1
429 597 1
430 466 1
430 472 1
430 529 1
430 556 1
430 573 1
430 593 1
431 460 1
431 528 1
431 566 1
431 582 1
431 584 1
431 598 1
432 443 1
432 498 1
432 503 1
432 562 1
432 596 1
433 481 1
433 559 1
433 582 1
434 447 1
434 527 1
435 456 1
435 533 1
435 557 1
435 576 1
436 461 1
436 568 1
436 580 1
437 475 1
437 487 1
437 512 1
437 517 1
437 541 1
438 443 1
438 447 1
438 482 1
438 488 1
439 488 1
439 498 1
440 478 1
440 504 1
440 522 1
441 445 1
441 472 1
441 496 1
441 503 1
441 531 1
442 455 1
442 553 1
443 450 1
443 467 1
443 471 1
443 490 1
443 519 1
443 581 1
444 585 1
445 451 1
445 457 1
445 494 1
445 518 1
445 564 1
445 583 1
446 518 1
446 529 1
446 532 1
446 576 1
447 476 1
447 479 1
447 484 1
447 491 1
447 528 1
447 543 1
448 504 1
448 524 1
449 454 1
449 471 1
449 486 1
449 591 1
450 452 1
450 508 1
450 510 1
450 555 1
451 472 1
452 504 1
452 513 1
452 524 1
452 599 1
453 497 1
453 547 1
454 457 1
454 464 1
454 531 1
454 532 1
454 535 1
454 594 1
455 471 1
455 493 1
455 550 1
455 569 1
456 492 1
456 493 1
457 469 1
457 485 1
457 575 1
458 571 1
458 599 1
459 553 1
459 588 1
460 506 1
461 490 1
461 518 1
461 550 1
461 566 1
462 475 1
462 548 1
462 550 1
463 466 1
463 510 1
463 515 1
463 576 1
464 543 1
464 592 1
465 560 1
465 577 1
466 484 1
466 510 1
466 600 1
467 469 1
467 496 1
467 547 1
467 590 1
467 599 1
468 484 1
468 509 1
468 523 1
468 582 1
469 474 1
469 583 1
470 566 1
471 521 1
471 563 1
472 473 1
472 537 1
473 527 1
473 555 1
473 566 1
473 571 1
474 509 1
475 588 1
476 531 1
476 564 1
477 520 1
478 545 1
479 495 1
479 507 1
479 511 1
479 588 1
480 483 1
480 519 1
480 523 1
480 589 1
481 574 1
481 596 1
482 591 1
483 490 1
483 505 1
483 593 1
484 538 1
484 577 1
484 592 1
485 491 1
485 547 1
485 551 1
485 570 1
485 577 1
487 496 1
487 521 1
487 576 1
488 548 1
488 557 1
488 577 1
488 578 1
489 550 1
489 593 1
490 586 1
491 544 1
492 533 1
492 537 1
493 547 1
493 550 1
494 517 1
494 551 1
495 499 1
495 519 1
495 523 1
495 560 1
496 597 1
499 521 1
500 543 1
501 536 1
501 561 1
501 573 1
502 509 1
502 520 1
502 542 1
502 552 1
503 585 1
503 599 1
504 548 1
504 580 1
505 563 1
505 567 1
505 580 1
506 545 1
506 567 1
506 593 1
506 594 1
507 533 1
508 511 1
508 527 1
508 532 1
508 587 1
509 521 1
509 538 1
509 541 1
510 597 1
511 521 1
511 522 1
511 591 1
512 550 1
515 585 1
516 551 1
516 553 1
516 562 1
516 587 1
517 587 1
518 572 1
518 579 1
518 590 1
519 539 1
519 548 1
519 560 1
519 565 1
519 589 1
520 542 1
520 561 1
521 532 1
521 544 1
522 546 1
522 568 1
522 582 1
523 573 1
524 577 1
524 585 1
525 527 1
525 569 1
525 585 1
525 598 1
526 570 1
528 595 1
529 537 1
529 543 1
529 546 1
529 576 1
529 587 1
531 575 1
531 594 1
532 540 1
532 567 1
532 577 1
533 549 1
533 568 1
535 565 1
535 570 1
538 562 1
539 587 1
540 575 1
541 556 1
541 563 1
541 597 1
543 587 1
544 558 1
545 570 1
545 592 1
546 557 1
548 550 1
549 582 1
549 589 1
550 600 1
552 580 1
553 597 1
558 561 1
560 567 1
562 567 1
562 578 1
562 597 1
563 588 1
564 594 1
565 591 1
572 576 1
573 586 1
573 593 1
574 598 1
575 591 1
578 589 1
579 584 1
579 597 1
580 590 1
580 596 1
590 600 1
